c --- [ banner ] -------------------------------------------------------------
c 
c CaDiCaL Radically Simplified CDCL SAT Solver
c Copyright (c) 2016-2019 Armin Biere, JKU Linz
c 
c Version 1.2.1 92d72896c49b30ad2d50c8e1061ca0681cd23e60
c g++ (GCC) 8.3.1 20190223 (Red Hat 8.3.1-2) -Wall -Wextra -O3 -DNDEBUG
c Mon Dec 9 12:07:29 EST 2019 Linux istanbul 5.0.16-100.fc28.x86_64 x86_64
c 
c --- [ limit ] --------------------------------------------------------------
c 
c setting time limit to 129600 seconds real time
c 
c --- [ parsing input ] ------------------------------------------------------
c 
c reading DIMACS file from './cnfs/toughsat_25bits_1.cnf'
c opening file to read './cnfs/toughsat_25bits_1.cnf'
c found 'p cnf 827 20774' header
c parsed 20774 clauses in 0.02 seconds process time
c closing file './cnfs/toughsat_25bits_1.cnf'
c after reading 646414 bytes 0.6 MB
c 
c --- [ options ] ------------------------------------------------------------
c 
c   --profile=4                    (different from default '2')
c 
c --- [ solving ] ------------------------------------------------------------
c 
c time measured in process time since initialization
c 
c  seconds  reductions  redundant  irredundant
c         MB    restarts       trail     variables
c          level   conflicts       glue      remaining
c 
c *  0.02  5  0 0   0    0    0  0% 0 20629 819 99%
c {  0.02  6  0 0   0    0    0  0% 0 20629 819 99%
c i  0.03  6 37 0  11  153  138 17% 6 20629 817 99%
c -  0.04  6 30 1  23  300  267 14% 5 20017 817 99%
c -  0.06  7 37 2  65  902  729 18% 6 20017 817 99%
c i  0.06  7 36 2  65  937  760 18% 6 20017 815 99%
c }  0.07  7 34 2  65 1000  816 17% 6 20017 815 99%
c [  0.07  7  0 2  65 1000  816  0% 0 20017 815 99%
c O  0.07  7 33 2  65 1003  819 18% 6 20017 815 99%
c -  0.13  7 29 3  65 1805 1269 54% 11 19957 815 99%
c ]  0.20  7 29 3  66 3001 2401 63% 9 19957 815 99%
c {  0.20  7 34 3  66 3001 2401 17% 6 19957 815 99%
c -  0.20  7 34 4  66 3006 1847 17% 6 19957 815 99%
c F  0.20  7 34 4  66 3007 1848 17% 6 19957 815 99%
c i  0.21  7 32 4 117 3259 2063 17% 6 19957 813 98%
c i  0.23  7 27 4 170 3734 2481 18% 7 19957 812 98%
c i  0.23  7 27 4 170 3762 2500 18% 7 19957 811 98%
c i  0.23  7 27 4 170 3764 2501 18% 6 19957 810 98%
c i  0.23  7 25 4 170 3819 2549 18% 6 19957 809 98%
c i  0.24  7 23 4 178 4151 2841 17% 6 19957 808 98%
c 
c  seconds  reductions  redundant  irredundant
c         MB    restarts       trail     variables
c          level   conflicts       glue      remaining
c 
c -  0.25  7 22 5 200 4507 2350 16% 6 19786 808 98%
c i  0.27  7 21 5 281 4983 2751 15% 7 19786 807 98%
c d  0.27  7 21 5 281 5001 2753 15% 7 19672 797 96%
c d  0.27  7 21 5 281 5001 2752 15% 7 19670 796 96%
c 3  0.27  7 21 5 281 5001 2865 15% 7 19666 796 96%
c 3  0.27  7 21 5 281 5001 2928 15% 7 19666 796 96%
c d  0.27  7 21 5 281 5001 2928 15% 7 19660 794 96%
c 2  0.27  7 21 5 281 5001 2925 15% 7 19658 792 96%
c p  0.28  7 21 5 281 5001 2942 15% 7 19658 790 96%
c #  0.31  7 20 5 435 6008 3807 15% 7 19658 790 96%
c -  0.33  7 21 6 450 6308 3020 16% 7 19602 790 96%
c }  0.35  7 21 6 489 7002 3600 17% 7 19602 790 96%
c [  0.35  7 29 6 489 7002 3600 63% 9 19602 790 96%
c -  0.43  8 33 7 490 8408 3925 65% 8 19602 790 96%
c s  0.50  8 33 7 491 9311 4582 65% 8 19245 790 96%
c v  0.65  8 33 7 491 9311 4582 65% 8 18656 790 96%
c w  0.68  8 33 7 491 9311 4557 65% 8 18656 790 96%
c t  0.69  8 33 7 491 9311 4550 65% 8 18652 790 96%
c e  0.73  8 33 7 491 9311 4413 65% 8 18607 778 94%
c s  0.74  8 33 7 491 9311 4403 65% 8 18521 778 94%
c 
c  seconds  reductions   redundant  irredundant
c         MB    restarts        trail     variables
c          level    conflicts       glue      remaining
c 
c I  0.80  8 34 7 491 10009 5064 65% 8 18521 778 94%
c i  0.81  8 34 7 491 10123 5169 64% 8 18521 777 94%
c -  0.85  8 33 8 492 10809 4672 61% 8 18497 777 94%
c -  1.00  9 29 9 494 13510 5409 49% 9 18497 777 94%
c ]  1.12  9 28 9 494 15002 6720 48% 10 18497 777 94%
c {  1.12  9 21 9 494 15002 6720 17% 7 18497 777 94%
c d  1.12  9 21 9 495 15002 6718 17% 7 18489 775 94%
c 3  1.12  9 21 9 495 15002 6840 17% 7 18489 775 94%
c 3  1.12  9 21 9 495 15002 6923 17% 7 18489 775 94%
c d  1.13  9 21 9 495 15002 6910 17% 7 18486 773 93%
c 2  1.13  9 21 9 495 15002 6909 17% 7 18486 773 93%
c p  1.13  9 21 9 495 15002 6946 17% 7 18486 768 93%
c B  1.13  9 21 9 495 15010 6954 17% 7 18486 768 93%
c -  1.20  8 21 10 670 16512 6093 19% 7 18013 768 93%
c -  1.33  9 19 11 873 19814 6766 20% 7 18013 768 93%
c W  1.39  9 19 11 961 21011 7809 21% 7 18013 768 93%
c i  1.40  9 19 11 961 21174 7894 20% 7 18013 767 93%
c -  1.48 10 18 12 1071 23415 7690 22% 7 17905 767 93%
c i  1.64 10 18 12 1397 27243 11047 23% 7 17905 766 93%
c -  1.65 10 18 13 1397 27315 8858 23% 7 17897 766 93%
c 
c  seconds  reductions     redundant  irredundant
c         MB     restarts         trail     variables
c          level      conflicts       glue      remaining
c 
c s  1.68 10 18 13 1411 27604 9092 23% 7 17858 766 93%
c v  1.84 10 18 13 1411 27604 9092 23% 7 17526 766 93%
c w  1.87 10 18 13 1411 27604 8975 23% 7 17526 764 92%
c t  1.87 10 18 13 1411 27604 8973 23% 7 17526 764 92%
c e  1.91 10 18 13 1411 27604 8650 23% 7 17451 760 92%
c s  1.93 10 18 13 1411 27604 8238 23% 7 17361 760 92%
c F  1.96 10 18 13 1428 28012 8610 24% 7 17359 760 92%
c 3  2.03 10 18 13 1450 30003 10531 25% 7 17359 760 92%
c d  2.04 10 18 13 1450 30003 10445 25% 7 17356 759 92%
c 2  2.04 10 18 13 1450 30003 10440 25% 7 17356 759 92%
c p  2.04 10 18 13 1450 30003 10454 25% 7 17356 756 91%
c }  2.09 10 18 13 1545 31003 11379 25% 7 17356 756 91%
c [  2.09 10 28 13 1545 31003 11379 48% 10 17356 756 91%
c -  2.12 10 28 14 1545 31515 9723 46% 10 17320 756 91%
c B  2.38 10 24 14 1548 36015 13896 44% 9 17320 756 91%
c -  2.38 11 24 15 1548 36015 11098 44% 9 17320 756 91%
c -  2.75 10 24 16 1551 40816 11847 46% 9 17320 756 91%
c W  3.12 10 23 16 1552 45016 15607 47% 10 17320 756 91%
c -  3.20 12 23 17 1553 45917 12540 48% 10 17320 756 91%
c 3  3.55 12 22 17 1553 50006 16165 48% 10 17320 756 91%
c 
c  seconds  reductions      redundant   irredundant
c         MB     restarts          trail      variables
c          level      conflicts        glue       remaining
c 
c d  3.55 12 22 17 1553 50006 16207 48% 10 17319 755 91%
c p  3.56 12 22 17 1553 50006 16223 48% 10 17319 755 91%
c -  3.67 10 22 18 1553 51318 13031 49% 10 17319 755 91%
c s  4.01 10 22 18 1554 54687 15686 49% 10 17307 755 91%
c v  4.22 10 22 18 1554 54687 15686 49% 10 17093 755 91%
c w  4.31 10 22 18 1554 54687 15616 49% 10 17093 754 91%
c t  4.31 10 22 18 1554 54687 15615 49% 10 17093 754 91%
c e  4.34 10 22 18 1554 54687 15447 49% 10 17085 747 90%
c s  4.39 10 22 18 1554 54687 14984 49% 10 17058 747 90%
c O  4.43 10 22 18 1555 55018 15305 49% 10 17058 747 90%
c -  4.61 12 22 19 1556 57018 13342 50% 10 17058 747 90%
c ]  5.18 12 21 19 1560 63003 18821 52% 10 17058 747 90%
c {  5.18 12 18 19 1560 63003 18821 25% 7 17058 747 90%
c -  5.19 10 18 20 1560 63018 14217 25% 7 17058 747 90%
c B  5.40 10 19 20 2126 66019 16948 26% 7 17058 747 90%
c -  5.62 12 18 21 2546 69319 15424 25% 7 17058 747 90%
c 2  6.06 12 19 21 3225 75006 20816 30% 7 17058 747 90%
c p  6.06 12 19 21 3225 75006 20833 30% 7 17058 747 90%
c -  6.14 12 19 22 3380 75921 16704 30% 7 17058 747 90%
c W  6.31 12 19 22 3534 78020 18596 30% 7 17058 747 90%
c 
c  seconds  reductions      redundant  irredundant
c         MB     restarts          trail     variables
c          level      conflicts        glue      remaining
c 
c -  6.56 12 19 23 3829 82822 18171 31% 7 17058 747 90%
c -  6.98 14 19 24 4547 90022 19694 31% 7 17058 747 90%
c s  7.03 14 19 24 4549 90794 20387 31% 7 17058 747 90%
c v  7.24 14 19 24 4549 90794 20387 31% 7 16979 747 90%
c w  7.33 14 19 24 4549 90794 20276 31% 7 16979 742 90%
c e  7.37 14 19 24 4549 90794 19980 31% 7 16914 736 89%
c s  7.44 14 19 24 4549 90794 19386 31% 7 16888 736 89%
c e  7.45 14 19 24 4549 90794 18984 31% 7 16890 733 89%
c #  7.48 14 19 24 4600 91021 19194 31% 7 16890 733 89%
c -  7.93 14 19 25 5365 97523 20563 31% 8 16890 733 89%
c d  8.33 14 18 25 5690 105007 27006 30% 7 16888 731 88%
c p  8.34 14 18 25 5690 105007 27223 30% 7 16888 730 88%
c B  8.34 14 18 25 5690 105023 27236 30% 7 16888 730 88%
c -  8.38 14 18 26 5730 105324 21607 30% 7 16852 730 88%
c -  9.05 14 19 27 6259 113424 23986 33% 7 16852 730 88%
c W  9.67 14 19 27 7230 120024 29888 33% 7 16852 730 88%
c -  9.87 14 19 28 7605 121824 25249 33% 7 16852 730 88%
c } 10.31 14 19 28 8374 127004 29890 33% 8 16852 730 88%
c [ 10.31 14 21 28 8374 127004 29890 52% 10 16852 730 88%
c - 10.45 12 20 29 8375 130525 25862 49% 10 16852 730 88%
c 
c  seconds  reductions       redundant   irredundant
c         MB     restarts           trail      variables
c          level      conflicts         glue       remaining
c 
c B 11.04 12 20 29 8379 136026 30657 49% 10 16852 730 88%
c s 11.06 14 20 29 8379 136057 30686 49% 10 16852 730 88%
c v 11.26 14 20 29 8379 136057 30686 49% 10 16750 730 88%
c w 11.39 14 20 29 8379 136057 30635 49% 10 16750 730 88%
c t 11.39 14 20 29 8379 136057 30634 49% 10 16749 730 88%
c e 11.41 14 20 29 8379 136057 30599 49% 10 16751 729 88%
c s 11.51 14 20 29 8379 136057 29500 49% 10 16743 729 88%
c - 11.91 16 20 30 8381 139526 27300 49% 10 16743 729 88%
c p 11.97 12 20 30 8381 140007 27892 49% 10 16743 729 88%
c - 13.02 13 20 31 8382 148826 27504 51% 10 16743 729 88%
c W 13.56 13 19 31 8383 153029 31369 52% 10 16743 729 88%
c - 14.28 13 19 32 8383 158426 28557 52% 10 16743 729 88%
c - 15.49 13 19 33 8384 168326 28620 50% 10 16743 729 88%
c I 15.79 13 19 33 8386 171030 30690 50% 10 16743 729 88%
c - 16.53 15 19 34 8390 178527 30122 50% 10 16743 729 88%
c p 16.69 15 19 34 8391 180007 31553 50% 10 16743 729 88%
c - 17.61 16 20 35 8397 189028 31502 50% 10 16743 729 88%
c B 17.72 16 20 35 8397 190031 32427 50% 10 16743 729 88%
c s 17.87 16 20 35 8397 190315 32328 50% 10 16739 729 88%
c v 18.07 16 20 35 8397 190315 32328 50% 10 16689 729 88%
c 
c  seconds  reductions       redundant   irredundant
c         MB     restarts           trail      variables
c          level      conflicts         glue       remaining
c 
c w 18.36 16 20 35 8397 190315 32304 50% 10 16689 729 88%
c e 18.40 16 20 35 8397 190315 31868 50% 10 16715 725 88%
c s 18.52 16 20 35 8397 190315 31514 50% 10 16709 725 88%
c - 19.67 13 20 36 8398 199829 31469 51% 10 16709 725 88%
c W 21.07 13 19 36 8405 210032 39570 52% 10 16709 725 88%
c - 21.16 16 19 37 8405 210929 32052 51% 10 16709 725 88%
c - 22.24 13 19 38 8412 222329 33137 43% 10 16709 725 88%
c 3 22.55 13 19 38 8413 225007 35466 42% 10 16708 724 88%
c p 22.56 13 19 38 8413 225007 35525 42% 10 16708 724 88%
c O 23.42 13 19 38 8413 231034 39669 42% 10 16708 724 88%
c - 23.87 17 19 39 8414 234029 33811 43% 10 16708 724 88%
c - 25.56 14 19 40 8414 246032 33742 45% 10 16708 724 88%
c B 26.63 14 18 40 8415 253036 39186 48% 10 16708 724 88%
c s 26.86 14 18 40 8415 253687 39670 48% 10 16698 724 88%
c v 27.06 14 18 40 8415 253687 39670 48% 10 16645 724 88%
c w 27.44 15 18 40 8415 253687 39667 48% 10 16645 724 88%
c e 27.47 15 18 40 8415 253687 38284 48% 10 16734 716 87%
c s 27.64 15 18 40 8415 253687 38018 48% 10 16713 716 87%
c e 27.64 15 18 40 8415 253687 37256 48% 10 16730 714 86%
c ] 27.82 15 18 40 8415 255007 38526 48% 10 16730 714 86%
c 
c  seconds  reductions       redundant  irredundant
c         MB     restarts           trail     variables
c          level      conflicts         glue      remaining
c 
c { 27.82 15 19 40 8415 255007 38526 38% 8 16730 714 86%
c - 28.25 18 19 41 8733 258333 34098 38% 8 16730 714 86%
c - 29.17 17 18 42 9430 270933 35674 36% 7 16730 714 86%
c i 29.19 17 18 42 9430 271523 36149 36% 7 16730 713 86%
c 3 29.55 17 18 42 9784 275007 39462 36% 7 16730 713 86%
c 3 29.55 17 18 42 9784 275007 39530 36% 7 16730 713 86%
c p 29.56 17 18 42 9784 275007 39549 36% 7 16730 711 86%
c F 29.68 17 18 42 9983 276037 40478 36% 7 16730 711 86%
c - 30.67 20 18 43 11705 283834 38461 35% 8 16691 711 86%
c - 32.29 17 18 44 13562 297035 39801 35% 8 16691 711 86%
c B 32.66 17 18 44 13612 300040 42571 37% 8 16691 711 86%
c - 34.06 21 18 45 14568 310535 42211 38% 8 16691 711 86%
c - 35.90 21 18 46 16241 324335 45284 39% 8 16691 711 86%
c W 36.07 21 18 46 16267 325042 45931 39% 8 16691 711 86%
c s 36.48 21 18 46 16329 326494 46912 39% 8 16638 711 86%
c v 36.68 21 18 46 16329 326494 46912 39% 8 16508 711 86%
c w 37.10 21 18 46 16329 326494 46889 39% 8 16508 711 86%
c t 37.10 21 18 46 16329 326494 46886 39% 8 16508 711 86%
c e 37.12 21 18 46 16329 326494 46883 39% 8 16508 710 86%
c s 37.35 21 18 46 16329 326494 46595 39% 8 16507 710 86%
c 
c  seconds  reductions        redundant  irredundant
c         MB      restarts           trail     variables
c          level       conflicts         glue      remaining
c 
c 3 37.80 21 18 46 16733 330007 49896 39% 8 16507 710 86%
c p 37.81 21 18 46 16733 330007 49941 39% 8 16507 710 86%
c - 39.01 21 18 47 17433 338435 47509 40% 8 16507 710 86%
c # 40.95 21 18 47 19257 351044 59000 40% 8 16507 710 86%
c - 41.11 21 18 48 19371 352836 49466 40% 8 16507 710 86%
c - 43.43 21 18 49 21681 367536 50652 40% 8 16507 710 86%
c B 45.01 21 18 49 22810 378045 60187 41% 8 16507 710 86%
c - 45.75 21 18 50 23283 382536 52140 41% 8 16507 710 86%
c p 46.84 21 18 50 23562 390007 59288 42% 8 16507 710 86%
c - 48.05 22 18 51 24196 397836 54387 42% 8 16507 710 86%
c W 49.45 22 18 51 24873 406046 61978 43% 8 16507 710 86%
c s 50.16 22 18 51 25294 408199 63345 43% 8 16476 710 86%
c v 50.37 22 18 51 25294 408199 63345 43% 8 16428 710 86%
c w 51.07 22 18 51 25294 408199 63323 43% 8 16428 710 86%
c - 52.00 22 18 52 25814 413439 57726 43% 8 16428 710 86%
c - 54.70 22 18 53 26303 429340 60004 46% 8 16428 710 86%
c F 55.64 22 18 53 26972 435049 65194 46% 8 16428 710 86%
c - 57.78 22 18 54 28390 445542 62010 45% 8 16428 710 86%
c p 59.45 22 18 54 29366 455007 70724 45% 8 16428 710 86%
c - 61.00 22 18 55 30229 462044 62582 45% 8 16428 710 86%
c 
c  seconds  reductions        redundant  irredundant
c         MB      restarts           trail     variables
c          level       conflicts         glue      remaining
c 
c B 61.57 22 18 55 30265 465050 65469 45% 8 16428 710 86%
c - 64.43 27 18 56 32431 478845 64869 45% 8 16428 710 86%
c - 67.52 28 18 57 34327 495947 66745 44% 8 16428 710 86%
c W 67.69 28 18 57 34345 496053 66845 44% 8 16428 710 86%
c } 70.82 28 18 57 36301 511007 80362 44% 8 16428 710 86%
c [ 70.82 28 18 57 36301 511007 80362 48% 10 16428 710 86%
c - 71.48 34 18 58 36301 513349 68898 48% 10 16428 710 86%
c p 75.18 34 19 58 36301 525010 79354 48% 10 16428 710 86%
c W 76.32 34 19 58 36301 528055 81771 48% 10 16428 710 86%
c - 77.05 28 19 59 36301 531050 70112 48% 10 16428 710 86%
c - 80.06 29 19 60 36308 549053 68869 46% 10 16428 710 86%
c I 82.25 29 19 60 36315 561057 78119 46% 11 16428 710 86%
c - 83.35 29 19 61 36316 567353 68141 47% 11 16428 710 86%
c - 86.98 29 19 62 36326 585954 69930 47% 11 16428 710 86%
c B 88.51 29 19 62 36330 595058 77030 47% 11 16428 710 86%
c p 89.23 29 19 62 36331 600010 81546 47% 11 16428 710 86%
c - 90.18 22 19 63 36332 604854 70600 46% 11 16428 710 86%
c - 94.95 23 18 64 36335 624057 70871 47% 11 16428 710 86%
c W 96.36 23 18 64 36339 630060 75986 47% 10 16428 710 86%
c - 98.91 23 18 65 36346 643558 73373 48% 11 16428 710 86%
c 
c  seconds   reductions        redundant   irredundant
c          MB      restarts           trail      variables
c           level       conflicts         glue       remaining
c 
c - 102.95 23 18 66 36354 663359 74162 47% 11 16428 710 86%
c O 103.66 23 17 66 36355 666062 76095 48% 11 16428 710 86%
c p 106.47 23 17 66 36362 680010 86400 48% 11 16428 710 86%
c - 107.32 23 17 67 36362 683460 74734 48% 11 16428 710 86%
c B 111.02 23 17 67 36364 703064 89383 47% 11 16428 710 86%
c - 111.21 23 17 68 36364 703860 76229 47% 11 16428 710 86%
c - 115.60 23 17 69 36364 724560 76765 47% 10 16428 710 86%
c W 119.18 23 17 69 36365 741067 88678 44% 10 16428 710 86%
c - 120.12 24 17 70 36365 745560 77934 44% 10 16428 710 86%
c p 124.77 24 16 70 36365 765011 91394 43% 10 16428 710 86%
c - 125.15 24 16 71 36365 766860 79051 43% 10 16428 710 86%
c I 127.74 24 16 71 36365 780069 89172 45% 10 16428 710 86%
c - 129.70 24 16 72 36365 788462 82084 45% 10 16428 710 86%
c - 134.74 24 16 73 36372 810362 84714 46% 10 16428 710 86%
c B 136.91 24 16 73 36378 820070 92270 46% 10 16428 710 86%
c - 139.68 24 16 74 36380 832564 85251 46% 10 16428 710 86%
c p 144.93 24 16 74 36394 855012 101901 45% 10 16428 710 86%
c - 144.98 24 16 75 36394 855066 84258 45% 10 16428 710 86%
c ] 145.56 24 16 75 36394 857005 85410 46% 10 16428 710 86%
c 1 145.56 24 16 75 36394 857005 85410 46% 10 16428 710 86%
c 
c --- [ result ] -------------------------------------------------------------
c 
s SATISFIABLE
v 1 2 3 4 5 6 -7 8 -9 -10 11 12 -13 -14 15 -16 17 -18 -19 20 -21 22 23 -24 25
v 26 27 28 29 30 31 -32 -33 34 35 36 37 -38 -39 -40 41 -42 43 44 -45 -46 47 48
v 49 50 51 -52 -53 -54 -55 56 -57 58 59 60 61 -62 63 -64 -65 66 67 68 69 -70
v 71 72 -73 74 75 76 77 78 -79 -80 81 82 -83 84 -85 86 -87 -88 -89 90 -91 92
v 93 94 -95 -96 97 -98 99 100 -101 -102 -103 104 105 -106 -107 108 109 -110
v 111 112 113 -114 -115 -116 117 -118 119 -120 121 -122 -123 -124 -125 -126
v -127 128 -129 130 131 -132 -133 134 135 -136 -137 138 139 -140 -141 142 143
v -144 145 146 147 148 -149 -150 -151 -152 -153 -154 -155 156 -157 158 159
v -160 161 -162 -163 -164 165 166 167 -168 -169 170 -171 172 173 174 -175 -176
v -177 178 -179 180 -181 -182 183 -184 -185 -186 187 188 -189 190 -191 192
v -193 194 -195 196 197 198 -199 -200 -201 -202 -203 204 205 206 207 -208 -209
v -210 211 212 -213 -214 -215 -216 -217 -218 219 -220 221 222 -223 -224 225
v 226 -227 228 229 -230 231 -232 -233 -234 235 -236 -237 238 -239 -240 -241
v 242 -243 244 245 -246 247 248 249 -250 -251 -252 -253 254 -255 -256 257 258
v 259 -260 261 262 -263 264 -265 -266 267 -268 -269 -270 -271 272 273 -274
v -275 -276 -277 -278 -279 -280 -281 282 283 -284 -285 -286 -287 288 289 -290
v -291 -292 -293 294 295 -296 297 298 299 -300 301 302 303 -304 -305 -306 -307
v 308 309 -310 311 -312 313 314 315 -316 -317 318 319 320 321 -322 -323 -324
v -325 -326 327 -328 329 330 -331 332 -333 334 -335 -336 -337 338 339 -340 341
v -342 343 -344 345 346 -347 -348 -349 350 351 -352 353 354 -355 -356 357 358
v 359 360 361 362 -363 364 365 -366 -367 -368 -369 -370 371 372 373 374 -375
v -376 -377 378 -379 380 -381 382 -383 -384 -385 386 -387 -388 389 390 -391
v -392 -393 -394 395 396 -397 -398 -399 400 401 402 -403 404 405 -406 407 -408
v -409 -410 -411 -412 -413 -414 -415 -416 417 418 419 420 421 422 -423 424
v -425 426 -427 -428 -429 430 -431 -432 -433 434 435 -436 -437 438 439 440
v -441 -442 443 444 -445 446 -447 -448 -449 -450 451 -452 453 -454 -455 -456
v 457 458 -459 460 -461 -462 463 464 465 -466 -467 -468 -469 470 -471 -472
v -473 -474 -475 -476 477 478 -479 -480 481 -482 -483 -484 -485 486 -487 -488
v 489 -490 491 -492 -493 -494 -495 -496 497 -498 -499 500 501 502 -503 -504
v -505 506 -507 -508 -509 -510 511 -512 -513 -514 -515 516 -517 -518 -519 520
v -521 522 523 524 -525 526 -527 -528 -529 -530 -531 -532 -533 534 535 536
v -537 -538 -539 -540 541 542 -543 -544 -545 -546 -547 -548 -549 550 -551 -552
v -553 -554 555 -556 557 558 -559 -560 -561 562 -563 -564 -565 566 -567 568
v -569 -570 571 572 -573 -574 575 -576 577 -578 -579 -580 -581 -582 -583 -584
v 585 -586 587 -588 589 590 591 -592 -593 -594 -595 -596 -597 -598 599 600 601
v 602 -603 -604 -605 -606 -607 -608 -609 -610 611 612 613 -614 615 616 -617
v -618 -619 -620 621 622 -623 624 625 -626 -627 -628 -629 -630 -631 632 -633
v -634 -635 -636 637 -638 639 -640 -641 642 -643 644 -645 -646 -647 -648 -649
v -650 651 -652 -653 654 -655 656 -657 -658 659 660 661 662 -663 -664 665 666
v -667 -668 -669 670 -671 -672 -673 674 -675 -676 -677 678 -679 -680 681 -682
v -683 -684 685 -686 -687 -688 -689 -690 -691 692 -693 -694 -695 696 -697 698
v -699 -700 -701 702 -703 -704 705 -706 -707 -708 -709 710 -711 -712 -713 -714
v 715 -716 717 -718 719 720 -721 722 -723 -724 725 -726 -727 -728 -729 730
v -731 -732 -733 734 -735 736 737 738 -739 740 741 -742 743 744 -745 -746 -747
v -748 -749 -750 -751 -752 -753 754 755 -756 -757 -758 -759 -760 -761 -762 763
v 764 765 -766 -767 768 -769 -770 771 772 -773 -774 -775 776 -777 778 779 -780
v -781 -782 783 -784 785 -786 -787 -788 -789 790 791 792 -793 -794 795 -796
v -797 798 -799 -800 801 -802 -803 -804 805 -806 807 808 -809 810 -811 -812
v -813 -814 815 -816 817 -818 -819 -820 821 -822 -823 -824 -825 826 -827 0
c 
c --- [ run-time profiling ] -------------------------------------------------
c 
c process time taken by individual solving procedures
c (percentage relative to process time for solving)
c 
c       139.33   95.73% search
c       116.03   79.73% propagate
c        92.22   63.36% stable
c        45.61   31.34% unstable
c        16.72   11.49% analyze
c         6.21    4.27% simplify
c         5.30    3.64% bump
c         4.41    3.03% minimize
c         3.89    2.67% vivify
c         1.71    1.17% subsume
c         1.51    1.04% decide
c         1.50    1.03% walk
c         0.92    0.63% reduce
c         0.76    0.52% collect
c         0.33    0.23% elim
c         0.16    0.11% connect
c         0.13    0.09% decompose
c         0.08    0.05% probe
c         0.06    0.04% ternary
c         0.05    0.04% restart
c         0.02    0.01% parse
c         0.01    0.01% compact
c         0.01    0.01% transred
c         0.01    0.00% backward
c         0.01    0.00% deduplicate
c         0.00    0.00% copy
c         0.00    0.00% lucky
c         0.00    0.00% extend
c   =================================
c       145.54   99.99% solve
c 
c last line shows process time for solving
c (percentage relative to total process time)
c 
c --- [ statistics ] ---------------------------------------------------------
c 
c chronological:             54824         6.40 %  of conflicts
c conflicts:                857005      5888.55    per second
c decisions:               1337126      9187.50    per second
c eliminated:                   48         5.80 %  of all variables
c fixed:                        46         5.56 %  of all variables
c learned:                  850845        99.28 %  per conflict
c minimized:              12803456        38.60 %  learned literals
c propagations:           90688927         0.62 M  per second
c reduced:                  627458        73.22 %  per conflict
c rephased:                     40     21425.12    interval
c restarts:                  36394        23.55    interval
c stabilizing:                   5        60.21 %  of conflicts
c substituted:                  22         2.66 %  of all variables
c subsumed:                 134546         7.57 %  of all clauses
c strengthened:              49191         2.77 %  of all clauses
c ternary:                    2589         2.10 %  of resolved
c vivified:                  13409         0.75 %  of all clauses
c walked:                       12     71417.08    interval
c weakened:                    368         3.22    average size
c 
c seconds are measured in process time for solving
c 
c --- [ resources ] ----------------------------------------------------------
c 
c total process time since initialization:       145.56    seconds
c total real time since initialization:          146.24    seconds
c maximum resident set size of process:           34.07    MB
c 
c --- [ shutting down ] ------------------------------------------------------
c 
c exit 10
